#######################################
### Exact MIP solver for the HHCRSP ###
#######################################
-- Instance file: new-instances/HHCRSP_300_60_53_1.6_R_RC.txt
-- Max threads: 4
-- Time limit: 999999 seconds
-- Use initial solution: No
Trivial flow violations prevented generating 1194159 variables.
Version identifier: 20.1.0.0 | 2020-11-10 | 9bedb6d68
CPXPARAM_Threads                                 4
CPXPARAM_TimeLimit                               999999
Parallel mode: deterministic, using up to 4 threads for concurrent optimization:
 * Starting dual Simplex on 1 thread...
 * Starting Barrier on 3 threads...
Tried aggregator 1 time.
LP Presolve eliminated 47316 rows and 10757 columns.
Reduced LP has 1280142 rows, 1213527 columns, and 29789038 nonzeros.
Presolve time = 34.47 sec. (6491.78 ticks)
Symmetry aggregator did 2102939 additional substitutions.

Iteration log . . .
Iteration:     1   Dual objective     =             0.000000
Iteration:  1342   Dual objective     =           335.000000

Dual crossover.
  Dual:  Fixing 1509 variables.
     1508 DMoves:  Infeasibility  1.16484600e-12  Objective  3.35000000e+02
        0 DMoves:  Infeasibility  5.08149078e-13  Objective  3.35000000e+02
  Dual:  Pushed 35, exchanged 1474.
  Primal:  Fixing 1311 variables.
     1310 PMoves:  Infeasibility  4.16333634e-17  Objective  3.35000000e+02
        0 PMoves:  Infeasibility  3.19189120e-16  Objective  3.35000000e+02
  Primal:  Pushed 1170, exchanged 141.

Dual simplex solved model.


Solution status from MIP model:
-- Processing time: 56.904 sec.
-- Memory used: 1131 MB
-- Best bound: inf
-- Obj value: 335
-- Gap: inf%
-- Total distance: 1005
-- Total tardiness: 0
-- Largest tardiness: 0
